(declare-fun temp1242_1 () (_ BitVec 64))
(declare-fun var79868 () (_ BitVec 64))
(declare-fun ARGNAME_weight_NAMEEND_DIM () (_ BitVec 64))
(declare-fun temp1242_2 () (_ BitVec 64))
(declare-fun temp1242_3 () (_ BitVec 64))
(declare-fun var79869 () (_ BitVec 64))
(declare-fun k!0 () Bool)
(declare-fun temp1242_4 () (_ BitVec 64))
(declare-fun ARGNAME_groups_NAMEEND () (_ BitVec 64))
(declare-fun var79914 () (_ BitVec 64))
(declare-fun temp1242_5 () (_ BitVec 64))
(declare-fun ARGNAME_stride_NAMEEND_LEN () (_ BitVec 64))
(declare-fun ARGNAME_padding_NAMEEND_LEN () (_ BitVec 64))
(declare-fun ARGNAME_dilation_NAMEEND_LEN () (_ BitVec 64))
(declare-fun ARGNAME_output_padding_NAMEEND_LEN () (_ BitVec 64))
(declare-fun temp1242_6 () (_ BitVec 64))
(declare-fun temp1242_7 () (_ BitVec 64))
(declare-fun ARGNAME_padding_NAMEEND_VAL () (Array (_ BitVec 64) (_ BitVec 64)))
(declare-fun temp1242_8 () (_ BitVec 64))
(declare-fun temp1242_9 () (_ BitVec 64))
(declare-fun temp1242_10 () (_ BitVec 64))
(declare-fun temp1242_11 () (_ BitVec 64))
(declare-fun temp1242_12 () (_ BitVec 64))
(declare-fun temp1242_13 () (_ BitVec 64))
(declare-fun temp1242_14 () (_ BitVec 64))
(declare-fun temp1242_15 () (_ BitVec 64))
(declare-fun temp1242_16 () (_ BitVec 64))
(declare-fun temp1242_17 () (_ BitVec 64))
(declare-fun temp1242_18 () (_ BitVec 64))
(declare-fun temp1242_19 () (_ BitVec 64))
(declare-fun temp1242_20 () (_ BitVec 64))
(declare-fun temp1242_21 () (_ BitVec 64))
(declare-fun temp1242_22 () (_ BitVec 64))
(declare-fun temp1242_23 () (_ BitVec 64))
(declare-fun temp1242_24 () (_ BitVec 64))
(declare-fun temp1242_25 () (_ BitVec 64))
(declare-fun temp1242_26 () (_ BitVec 64))
(declare-fun temp1242_27 () (_ BitVec 64))
(declare-fun temp1242_28 () (_ BitVec 64))
(declare-fun temp1242_29 () (_ BitVec 64))
(declare-fun temp1242_30 () (_ BitVec 64))
(declare-fun temp1242_31 () (_ BitVec 64))
(declare-fun temp1242_32 () (_ BitVec 64))
(declare-fun temp1242_33 () (_ BitVec 64))
(declare-fun temp1242_34 () (_ BitVec 64))
(declare-fun temp1242_35 () (_ BitVec 64))
(declare-fun temp1242_36 () (_ BitVec 64))
(declare-fun temp1242_37 () (_ BitVec 64))
(declare-fun temp1242_38 () (_ BitVec 64))
(declare-fun temp1242_39 () (_ BitVec 64))
(declare-fun temp1242_40 () (_ BitVec 64))
(declare-fun temp1242_41 () (_ BitVec 64))
(declare-fun temp1242_42 () (_ BitVec 64))
(declare-fun temp1242_43 () (_ BitVec 64))
(declare-fun temp1242_44 () (_ BitVec 64))
(declare-fun temp1242_45 () (_ BitVec 64))
(declare-fun temp1242_46 () (_ BitVec 64))
(declare-fun temp1242_47 () (_ BitVec 64))
(declare-fun var1322786 () (_ BitVec 64))
(declare-fun temp1242_48 () (_ BitVec 64))
(declare-fun temp1242_49 () (_ BitVec 64))
(declare-fun temp1242_50 () (_ BitVec 64))
(declare-fun ARGNAME_output_padding_NAMEEND_VAL
             ()
             (Array (_ BitVec 64) (_ BitVec 64)))
(declare-fun temp1242_51 () (_ BitVec 64))
(declare-fun temp1242_52 () (_ BitVec 64))
(declare-fun temp1242_53 () (_ BitVec 64))
(declare-fun temp1242_54 () (_ BitVec 64))
(declare-fun temp1242_55 () (_ BitVec 64))
(declare-fun temp1242_56 () (_ BitVec 64))
(declare-fun temp1242_57 () (_ BitVec 64))
(declare-fun temp1242_58 () (_ BitVec 64))
(declare-fun temp1242_59 () (_ BitVec 64))
(declare-fun temp1242_60 () (_ BitVec 64))
(declare-fun temp1242_61 () (_ BitVec 64))
(declare-fun temp1242_62 () (_ BitVec 64))
(declare-fun temp1242_63 () (_ BitVec 64))
(declare-fun temp1242_64 () (_ BitVec 64))
(declare-fun temp1242_65 () (_ BitVec 64))
(declare-fun temp1242_66 () (_ BitVec 64))
(declare-fun temp1242_67 () (_ BitVec 64))
(declare-fun temp1242_68 () (_ BitVec 64))
(declare-fun temp1242_69 () (_ BitVec 64))
(declare-fun temp1242_70 () (_ BitVec 64))
(declare-fun temp1242_71 () (_ BitVec 64))
(declare-fun temp1242_72 () (_ BitVec 64))
(declare-fun temp1242_73 () (_ BitVec 64))
(declare-fun temp1242_74 () (_ BitVec 64))
(declare-fun temp1242_75 () (_ BitVec 64))
(declare-fun temp1242_76 () (_ BitVec 64))
(declare-fun temp1242_77 () (_ BitVec 64))
(declare-fun temp1242_78 () (_ BitVec 64))
(declare-fun temp1242_79 () (_ BitVec 64))
(declare-fun temp1242_80 () (_ BitVec 64))
(declare-fun temp1242_81 () (_ BitVec 64))
(declare-fun temp1242_82 () (_ BitVec 64))
(declare-fun temp1242_83 () (_ BitVec 64))
(declare-fun temp1242_84 () (_ BitVec 64))
(declare-fun temp1242_85 () (_ BitVec 64))
(declare-fun temp1242_86 () (_ BitVec 64))
(declare-fun temp1242_87 () (_ BitVec 64))
(declare-fun temp1242_88 () (_ BitVec 64))
(declare-fun temp1242_89 () (_ BitVec 64))
(declare-fun temp1242_90 () (_ BitVec 64))
(declare-fun var1322797 () (_ BitVec 64))
(declare-fun temp1242_91 () (_ BitVec 64))
(declare-fun temp1242_92 () (_ BitVec 64))
(declare-fun temp1242_93 () (_ BitVec 64))
(declare-fun ARGNAME_stride_NAMEEND_VAL () (Array (_ BitVec 64) (_ BitVec 64)))
(declare-fun temp1242_94 () (_ BitVec 64))
(declare-fun temp1242_95 () (_ BitVec 64))
(declare-fun temp1242_96 () (_ BitVec 64))
(declare-fun temp1242_97 () (_ BitVec 64))
(declare-fun temp1242_98 () (_ BitVec 64))
(declare-fun temp1242_99 () (_ BitVec 64))
(declare-fun temp1242_100 () (_ BitVec 64))
(declare-fun temp1242_101 () (_ BitVec 64))
(declare-fun temp1242_102 () (_ BitVec 64))
(declare-fun temp1242_103 () (_ BitVec 64))
(declare-fun temp1242_104 () (_ BitVec 64))
(declare-fun temp1242_105 () (_ BitVec 64))
(declare-fun temp1242_106 () (_ BitVec 64))
(declare-fun temp1242_107 () (_ BitVec 64))
(declare-fun temp1242_108 () (_ BitVec 64))
(declare-fun temp1242_109 () (_ BitVec 64))
(declare-fun temp1242_110 () (_ BitVec 64))
(declare-fun temp1242_111 () (_ BitVec 64))
(declare-fun temp1242_112 () (_ BitVec 64))
(declare-fun temp1242_113 () (_ BitVec 64))
(declare-fun temp1242_114 () (_ BitVec 64))
(declare-fun temp1242_115 () (_ BitVec 64))
(declare-fun temp1242_116 () (_ BitVec 64))
(declare-fun temp1242_117 () (_ BitVec 64))
(declare-fun temp1242_118 () (_ BitVec 64))
(declare-fun temp1242_119 () (_ BitVec 64))
(declare-fun temp1242_120 () (_ BitVec 64))
(declare-fun temp1242_121 () (_ BitVec 64))
(declare-fun temp1242_122 () (_ BitVec 64))
(declare-fun temp1242_123 () (_ BitVec 64))
(declare-fun temp1242_124 () (_ BitVec 64))
(declare-fun temp1242_125 () (_ BitVec 64))
(declare-fun temp1242_126 () (_ BitVec 64))
(declare-fun temp1242_127 () (_ BitVec 64))
(declare-fun temp1242_128 () (_ BitVec 64))
(declare-fun temp1242_129 () (_ BitVec 64))
(declare-fun temp1242_130 () (_ BitVec 64))
(declare-fun temp1242_131 () (_ BitVec 64))
(declare-fun temp1242_132 () (_ BitVec 64))
(declare-fun temp1242_133 () (_ BitVec 64))
(declare-fun var1322807 () (_ BitVec 64))
(declare-fun temp1242_134 () (_ BitVec 64))
(declare-fun ARGNAME_input_NAMEEND_DIM () (_ BitVec 64))
(declare-fun var1322819 () (_ BitVec 64))
(declare-fun temp1242_135 () (_ BitVec 64))
(declare-fun temp1242_136 () (_ BitVec 64))
(declare-fun var1310898 () (_ BitVec 64))
(declare-fun temp1242_137 () (_ BitVec 64))
(declare-fun temp1242_138 () (_ BitVec 64))
(declare-fun ARGNAME_weight_NAMEEND_DIMSIZE
             ()
             (Array (_ BitVec 64) (_ BitVec 64)))
(declare-fun temp1242_139 () (_ BitVec 64))
(declare-fun temp1242_140 () (_ BitVec 64))
(declare-fun temp1242_141 () (_ BitVec 64))
(declare-fun temp1242_142 () (_ BitVec 64))
(declare-fun temp1242_143 () (_ BitVec 64))
(declare-fun temp1242_144 () (_ BitVec 64))
(declare-fun temp1242_145 () (_ BitVec 64))
(declare-fun temp1242_146 () (_ BitVec 64))
(declare-fun temp1242_147 () (_ BitVec 64))
(declare-fun temp1242_148 () (_ BitVec 64))
(declare-fun temp1242_149 () (_ BitVec 64))
(declare-fun temp1242_150 () (_ BitVec 64))
(declare-fun temp1242_151 () (_ BitVec 64))
(declare-fun temp1242_152 () (_ BitVec 64))
(declare-fun temp1242_153 () (_ BitVec 64))
(declare-fun temp1242_154 () (_ BitVec 64))
(declare-fun temp1242_156 () (_ BitVec 64))
(declare-fun temp1242_157 () (_ BitVec 64))
(declare-fun temp1242_155 () (_ BitVec 64))
(declare-fun var1322852 () (_ BitVec 64))
(declare-fun temp1242_158 () (_ BitVec 64))
(declare-fun temp1242_159 () (_ BitVec 64))
(declare-fun temp1242_161 () (_ BitVec 64))
(declare-fun temp1242_162 () (_ BitVec 64))
(declare-fun temp1242_160 () (_ BitVec 64))
(declare-fun var1322874 () (_ BitVec 64))
(declare-fun temp1242_163 () (_ BitVec 64))
(declare-fun var1322875 () (_ BitVec 64))
(declare-fun temp1242_164 () (_ BitVec 64))
(declare-fun temp1242_165 () (_ BitVec 64))
(declare-fun ARGNAME_transposed_NAMEEND () (_ BitVec 64))
(declare-fun var1322895 () (_ BitVec 64))
(declare-fun temp1242_166 () (_ BitVec 64))
(declare-fun temp1242_167 () (_ BitVec 64))
(declare-fun var1311786 () (_ BitVec 64))
(declare-fun temp1242_168 () (_ BitVec 64))
(declare-fun temp1242_169 () (_ BitVec 64))
(declare-fun ARGNAME_input_NAMEEND_DIMSIZE
             ()
             (Array (_ BitVec 64) (_ BitVec 64)))
(declare-fun temp1242_170 () (_ BitVec 64))
(declare-fun temp1242_171 () (_ BitVec 64))
(declare-fun temp1242_172 () (_ BitVec 64))
(declare-fun temp1242_173 () (_ BitVec 64))
(declare-fun temp1242_174 () (_ BitVec 64))
(declare-fun temp1242_175 () (_ BitVec 64))
(declare-fun temp1242_176 () (_ BitVec 64))
(declare-fun temp1242_177 () (_ BitVec 64))
(declare-fun temp1242_178 () (_ BitVec 64))
(declare-fun temp1242_179 () (_ BitVec 64))
(declare-fun temp1242_180 () (_ BitVec 64))
(declare-fun temp1242_181 () (_ BitVec 64))
(declare-fun temp1242_182 () (_ BitVec 64))
(declare-fun temp1242_183 () (_ BitVec 64))
(declare-fun temp1242_184 () (_ BitVec 64))
(declare-fun temp1242_185 () (_ BitVec 64))
(declare-fun temp1242_186 () (_ BitVec 64))
(declare-fun temp1242_187 () (_ BitVec 64))
(declare-fun temp1242_188 () (_ BitVec 64))
(declare-fun var1322903 () (_ BitVec 64))
(declare-fun temp1242_189 () (_ BitVec 64))
(declare-fun temp1242_191 () (_ BitVec 64))
(declare-fun temp1242_192 () (_ BitVec 64))
(declare-fun temp1242_190 () (_ BitVec 64))
(declare-fun var1322907 () (_ BitVec 64))
(declare-fun var1322908 () (_ BitVec 64))
(declare-fun temp1242_193 () (_ BitVec 64))
(declare-fun temp1242_194 () (_ BitVec 64))
(declare-fun ARGNAME_bias_NAMEEND_DIM () (_ BitVec 64))
(declare-fun var1322975 () (_ BitVec 64))
(declare-fun temp1242_195 () (_ BitVec 64))
(declare-fun temp1242_196 () (_ BitVec 64))
(declare-fun temp1242_197 () (_ BitVec 64))
(declare-fun temp1242_198 () (_ BitVec 64))
(declare-fun ARGNAME_bias_NAMEEND_DIMSIZE
             ()
             (Array (_ BitVec 64) (_ BitVec 64)))
(declare-fun temp1242_199 () (_ BitVec 64))
(declare-fun temp1242_200 () (_ BitVec 64))
(declare-fun temp1242_201 () (_ BitVec 64))
(declare-fun temp1242_202 () (_ BitVec 64))
(declare-fun temp1242_203 () (_ BitVec 64))
(declare-fun temp1242_204 () (_ BitVec 64))
(declare-fun temp1242_205 () (_ BitVec 64))
(declare-fun temp1242_206 () (_ BitVec 64))
(declare-fun temp1242_207 () (_ BitVec 64))
(declare-fun temp1242_208 () (_ BitVec 64))
(declare-fun temp1242_209 () (_ BitVec 64))
(declare-fun temp1242_210 () (_ BitVec 64))
(declare-fun temp1242_211 () (_ BitVec 64))
(declare-fun temp1242_212 () (_ BitVec 64))
(declare-fun temp1242_213 () (_ BitVec 64))
(declare-fun temp1242_214 () (_ BitVec 64))
(declare-fun temp1242_215 () (_ BitVec 64))
(declare-fun temp1242_216 () (_ BitVec 64))
(declare-fun temp1242_217 () (_ BitVec 64))
(declare-fun var1322977 () (_ BitVec 64))
(declare-fun temp1242_218 () (_ BitVec 64))
(declare-fun temp1242_220 () (_ BitVec 64))
(declare-fun temp1242_221 () (_ BitVec 64))
(declare-fun temp1242_219 () (_ BitVec 64))
(declare-fun var1322980 () (_ BitVec 64))
(declare-fun temp1242_222 () (_ BitVec 64))
(declare-fun temp1242_223 () (_ BitVec 64))
(declare-fun var1848169 () (_ BitVec 64))
(declare-fun var1848178 () (_ BitVec 64))
(declare-fun var1913913 () (_ BitVec 64))
(declare-fun var1913915 () (_ BitVec 64))
(declare-fun temp1242_224 () (_ BitVec 64))
(declare-fun var1979456 () (_ BitVec 64))
(declare-fun var2045003 () (_ BitVec 64))
(declare-fun temp1242_225 () (_ BitVec 64))
(declare-fun var1323065 () (_ BitVec 64))
(declare-fun temp1242_226 () (_ BitVec 64))
(declare-fun var3486735 () (_ BitVec 64))
(declare-fun temp1242_227 () (_ BitVec 64))
(declare-fun var3814415 () (_ BitVec 64))
(declare-fun temp1242_228 () (_ BitVec 64))
(declare-fun var79986 () (_ BitVec 64))
(declare-fun temp1242_229 () (_ BitVec 64))
(declare-fun temp1242_230 () (_ BitVec 64))
(declare-fun var80116 () (_ BitVec 64))
(declare-fun var4796905 () (_ BitVec 64))
(declare-fun temp1242_231 () (_ BitVec 64))
(declare-fun var4784306 () (_ BitVec 64))
(declare-fun temp1242_232 () (_ BitVec 64))
(declare-fun temp1242_233 () (_ BitVec 64))
(declare-fun temp1242_234 () (_ BitVec 64))
(declare-fun var4796924 () (_ BitVec 64))
(declare-fun temp1242_235 () (_ BitVec 64))
(declare-fun var4796925 () (_ BitVec 64))
(declare-fun temp1242_236 () (_ BitVec 64))
(declare-fun temp1242_237 () (_ BitVec 64))
(declare-fun var5050621 () (_ BitVec 64))
(declare-fun var5050566 () (_ BitVec 64))
(declare-fun var4996900 () (_ BitVec 64))
(declare-fun var4996927 () (_ BitVec 64))
(declare-fun var4996929 () (_ BitVec 64))
(declare-fun var4996886 () (_ BitVec 64))
(declare-fun var80129 () (_ BitVec 64))
(declare-fun temp1242_238 () (_ BitVec 64))
(declare-fun var5256835 () (_ BitVec 64))
(declare-fun var5256837 () (_ BitVec 64))
(declare-fun var5322380 () (_ BitVec 64))
(declare-fun var5322381 () (_ BitVec 64))
(declare-fun var5322394 () (_ BitVec 64))
(declare-fun var5322396 () (_ BitVec 64))
(declare-fun temp1242_239 () (_ BitVec 64))
(declare-fun var5322421 () (_ BitVec 64))
(declare-fun var5322423 () (_ BitVec 64))
(declare-fun var5443411 () (_ BitVec 64))
(declare-fun var6042000 () (_ BitVec 64))
(declare-fun temp1242_240 () (_ BitVec 64))
(declare-fun ARGNAME_benchmark_NAMEEND () (_ BitVec 64))
(declare-fun var80421 () (_ BitVec 64))
(declare-fun temp1242_241 () (_ BitVec 64))
(declare-fun ARGNAME_deterministic_NAMEEND () (_ BitVec 64))
(declare-fun var80423 () (_ BitVec 64))
(declare-fun temp1242_242 () (_ BitVec 64))
(declare-fun ARGNAME_allow_tf32_NAMEEND () (_ BitVec 64))
(declare-fun var80425 () (_ BitVec 64))
(declare-fun temp1242_244 () (_ BitVec 64))
(declare-fun temp1242_243 () (_ BitVec 64))
(assert (= temp1242_1 #xfffffffffffffffe))
(assert (= var79868 (bvadd ARGNAME_weight_NAMEEND_DIM temp1242_1)))
(assert (= temp1242_2 #x0000000000000003))
(assert (= var79869
   (ite (bvslt ARGNAME_weight_NAMEEND_DIM temp1242_2)
        #x0000000000000001
        #x0000000000000000)))
(assert (= temp1242_3 #x0000000000000000))
(assert (= var79869 temp1242_3))
(assert (= temp1242_4 #x0000000000000001))
(assert (= var79914
   (ite (bvslt ARGNAME_groups_NAMEEND temp1242_4)
        #x0000000000000001
        #x0000000000000000)))
(assert (= temp1242_5 #x0000000000000000))
(assert (= var79914 temp1242_5))
(assert (= ARGNAME_stride_NAMEEND_LEN var79868))
(assert (= ARGNAME_padding_NAMEEND_LEN var79868))
(assert (= ARGNAME_dilation_NAMEEND_LEN var79868))
(assert (= ARGNAME_output_padding_NAMEEND_LEN var79868))
(assert (= temp1242_6 #x0000000000000000))
(assert (= temp1242_7 temp1242_6))
(assert (= temp1242_8 (select ARGNAME_padding_NAMEEND_VAL temp1242_7)))
(assert (= temp1242_9 #x0000000000000001))
(assert (= temp1242_10 temp1242_9))
(assert (= temp1242_11 (select ARGNAME_padding_NAMEEND_VAL temp1242_10)))
(assert (= temp1242_12 #x0000000000000002))
(assert (= temp1242_13 temp1242_12))
(assert (= temp1242_14 (select ARGNAME_padding_NAMEEND_VAL temp1242_13)))
(assert (= temp1242_15 #x0000000000000003))
(assert (= temp1242_16 temp1242_15))
(assert (= temp1242_17 (select ARGNAME_padding_NAMEEND_VAL temp1242_16)))
(assert (= temp1242_18 #x0000000000000004))
(assert (= temp1242_19 temp1242_18))
(assert (= temp1242_20 (select ARGNAME_padding_NAMEEND_VAL temp1242_19)))
(assert (= temp1242_21 #x0000000000000005))
(assert (= temp1242_22 temp1242_21))
(assert (= temp1242_23 (select ARGNAME_padding_NAMEEND_VAL temp1242_22)))
(assert (= temp1242_24 #x0000000000000000))
(assert (= temp1242_25 #x0000000000000000))
(assert (= temp1242_26 temp1242_25))
(assert (= temp1242_27 (select ARGNAME_padding_NAMEEND_VAL temp1242_26)))
(assert (= temp1242_28 #x0000000000000000))
(assert (= temp1242_29 #x0000000000000001))
(assert (= temp1242_30 temp1242_29))
(assert (= temp1242_31 (select ARGNAME_padding_NAMEEND_VAL temp1242_30)))
(assert (= temp1242_32 #x0000000000000000))
(assert (= temp1242_33 #x0000000000000002))
(assert (= temp1242_34 temp1242_33))
(assert (= temp1242_35 (select ARGNAME_padding_NAMEEND_VAL temp1242_34)))
(assert (= temp1242_36 #x0000000000000000))
(assert (= temp1242_37 #x0000000000000003))
(assert (= temp1242_38 temp1242_37))
(assert (= temp1242_39 (select ARGNAME_padding_NAMEEND_VAL temp1242_38)))
(assert (= temp1242_40 #x0000000000000000))
(assert (= temp1242_41 #x0000000000000004))
(assert (= temp1242_42 temp1242_41))
(assert (= temp1242_43 (select ARGNAME_padding_NAMEEND_VAL temp1242_42)))
(assert (= temp1242_44 #x0000000000000000))
(assert (= temp1242_45 #x0000000000000005))
(assert (= temp1242_46 temp1242_45))
(assert (= temp1242_47 (select ARGNAME_padding_NAMEEND_VAL temp1242_46)))
(assert (= var1322786
   (ite (and true
             (bvslt temp1242_27 temp1242_24)
             (bvslt temp1242_31 temp1242_28)
             (bvslt temp1242_35 temp1242_32)
             (bvslt temp1242_39 temp1242_36)
             (bvslt temp1242_43 temp1242_40)
             (bvslt temp1242_47 temp1242_44))
        #x0000000000000001
        #x0000000000000000)))
(assert (= temp1242_48 #x0000000000000000))
(assert (= var1322786 temp1242_48))
(assert (= temp1242_49 #x0000000000000000))
(assert (= temp1242_50 temp1242_49))
(assert (= temp1242_51 (select ARGNAME_output_padding_NAMEEND_VAL temp1242_50)))
(assert (= temp1242_52 #x0000000000000001))
(assert (= temp1242_53 temp1242_52))
(assert (= temp1242_54 (select ARGNAME_output_padding_NAMEEND_VAL temp1242_53)))
(assert (= temp1242_55 #x0000000000000002))
(assert (= temp1242_56 temp1242_55))
(assert (= temp1242_57 (select ARGNAME_output_padding_NAMEEND_VAL temp1242_56)))
(assert (= temp1242_58 #x0000000000000003))
(assert (= temp1242_59 temp1242_58))
(assert (= temp1242_60 (select ARGNAME_output_padding_NAMEEND_VAL temp1242_59)))
(assert (= temp1242_61 #x0000000000000004))
(assert (= temp1242_62 temp1242_61))
(assert (= temp1242_63 (select ARGNAME_output_padding_NAMEEND_VAL temp1242_62)))
(assert (= temp1242_64 #x0000000000000005))
(assert (= temp1242_65 temp1242_64))
(assert (= temp1242_66 (select ARGNAME_output_padding_NAMEEND_VAL temp1242_65)))
(assert (= temp1242_67 #x0000000000000000))
(assert (= temp1242_68 #x0000000000000000))
(assert (= temp1242_69 temp1242_68))
(assert (= temp1242_70 (select ARGNAME_output_padding_NAMEEND_VAL temp1242_69)))
(assert (= temp1242_71 #x0000000000000000))
(assert (= temp1242_72 #x0000000000000001))
(assert (= temp1242_73 temp1242_72))
(assert (= temp1242_74 (select ARGNAME_output_padding_NAMEEND_VAL temp1242_73)))
(assert (= temp1242_75 #x0000000000000000))
(assert (= temp1242_76 #x0000000000000002))
(assert (= temp1242_77 temp1242_76))
(assert (= temp1242_78 (select ARGNAME_output_padding_NAMEEND_VAL temp1242_77)))
(assert (= temp1242_79 #x0000000000000000))
(assert (= temp1242_80 #x0000000000000003))
(assert (= temp1242_81 temp1242_80))
(assert (= temp1242_82 (select ARGNAME_output_padding_NAMEEND_VAL temp1242_81)))
(assert (= temp1242_83 #x0000000000000000))
(assert (= temp1242_84 #x0000000000000004))
(assert (= temp1242_85 temp1242_84))
(assert (= temp1242_86 (select ARGNAME_output_padding_NAMEEND_VAL temp1242_85)))
(assert (= temp1242_87 #x0000000000000000))
(assert (= temp1242_88 #x0000000000000005))
(assert (= temp1242_89 temp1242_88))
(assert (= temp1242_90 (select ARGNAME_output_padding_NAMEEND_VAL temp1242_89)))
(assert (= var1322797
   (ite (and true
             (bvslt temp1242_70 temp1242_67)
             (bvslt temp1242_74 temp1242_71)
             (bvslt temp1242_78 temp1242_75)
             (bvslt temp1242_82 temp1242_79)
             (bvslt temp1242_86 temp1242_83)
             (bvslt temp1242_90 temp1242_87))
        #x0000000000000001
        #x0000000000000000)))
(assert (= temp1242_91 #x0000000000000000))
(assert (= var1322797 temp1242_91))
(assert (= temp1242_92 #x0000000000000000))
(assert (= temp1242_93 temp1242_92))
(assert (= temp1242_94 (select ARGNAME_stride_NAMEEND_VAL temp1242_93)))
(assert (= temp1242_95 #x0000000000000001))
(assert (= temp1242_96 temp1242_95))
(assert (= temp1242_97 (select ARGNAME_stride_NAMEEND_VAL temp1242_96)))
(assert (= temp1242_98 #x0000000000000002))
(assert (= temp1242_99 temp1242_98))
(assert (= temp1242_100 (select ARGNAME_stride_NAMEEND_VAL temp1242_99)))
(assert (= temp1242_101 #x0000000000000003))
(assert (= temp1242_102 temp1242_101))
(assert (= temp1242_103 (select ARGNAME_stride_NAMEEND_VAL temp1242_102)))
(assert (= temp1242_104 #x0000000000000004))
(assert (= temp1242_105 temp1242_104))
(assert (= temp1242_106 (select ARGNAME_stride_NAMEEND_VAL temp1242_105)))
(assert (= temp1242_107 #x0000000000000005))
(assert (= temp1242_108 temp1242_107))
(assert (= temp1242_109 (select ARGNAME_stride_NAMEEND_VAL temp1242_108)))
(assert (= temp1242_110 #x0000000000000000))
(assert (= temp1242_111 #x0000000000000000))
(assert (= temp1242_112 temp1242_111))
(assert (= temp1242_113 (select ARGNAME_stride_NAMEEND_VAL temp1242_112)))
(assert (= temp1242_114 #x0000000000000000))
(assert (= temp1242_115 #x0000000000000001))
(assert (= temp1242_116 temp1242_115))
(assert (= temp1242_117 (select ARGNAME_stride_NAMEEND_VAL temp1242_116)))
(assert (= temp1242_118 #x0000000000000000))
(assert (= temp1242_119 #x0000000000000002))
(assert (= temp1242_120 temp1242_119))
(assert (= temp1242_121 (select ARGNAME_stride_NAMEEND_VAL temp1242_120)))
(assert (= temp1242_122 #x0000000000000000))
(assert (= temp1242_123 #x0000000000000003))
(assert (= temp1242_124 temp1242_123))
(assert (= temp1242_125 (select ARGNAME_stride_NAMEEND_VAL temp1242_124)))
(assert (= temp1242_126 #x0000000000000000))
(assert (= temp1242_127 #x0000000000000004))
(assert (= temp1242_128 temp1242_127))
(assert (= temp1242_129 (select ARGNAME_stride_NAMEEND_VAL temp1242_128)))
(assert (= temp1242_130 #x0000000000000000))
(assert (= temp1242_131 #x0000000000000005))
(assert (= temp1242_132 temp1242_131))
(assert (= temp1242_133 (select ARGNAME_stride_NAMEEND_VAL temp1242_132)))
(assert (= var1322807
   (ite (and true
             (bvsle temp1242_113 temp1242_110)
             (bvsle temp1242_117 temp1242_114)
             (bvsle temp1242_121 temp1242_118)
             (bvsle temp1242_125 temp1242_122)
             (bvsle temp1242_129 temp1242_126)
             (bvsle temp1242_133 temp1242_130))
        #x0000000000000001
        #x0000000000000000)))
(assert (= temp1242_134 #x0000000000000000))
(assert (= var1322807 temp1242_134))
(assert (= var1322819
   (ite (= ARGNAME_weight_NAMEEND_DIM ARGNAME_input_NAMEEND_DIM)
        #x0000000000000001
        #x0000000000000000)))
(assert (= temp1242_135 #x0000000000000001))
(assert (= var1322819 temp1242_135))
(assert (= temp1242_136 #x0000000000000000))
(assert (= var1310898 temp1242_136))
(assert (= temp1242_137 #x0000000000000000))
(assert (= temp1242_138 temp1242_137))
(assert (= temp1242_139 (select ARGNAME_weight_NAMEEND_DIMSIZE temp1242_138)))
(assert (= temp1242_140 #x0000000000000001))
(assert (= temp1242_141 temp1242_140))
(assert (= temp1242_142 (select ARGNAME_weight_NAMEEND_DIMSIZE temp1242_141)))
(assert (= temp1242_143 #x0000000000000002))
(assert (= temp1242_144 temp1242_143))
(assert (= temp1242_145 (select ARGNAME_weight_NAMEEND_DIMSIZE temp1242_144)))
(assert (= temp1242_146 #x0000000000000003))
(assert (= temp1242_147 temp1242_146))
(assert (= temp1242_148 (select ARGNAME_weight_NAMEEND_DIMSIZE temp1242_147)))
(assert (= temp1242_149 #x0000000000000004))
(assert (= temp1242_150 temp1242_149))
(assert (= temp1242_151 (select ARGNAME_weight_NAMEEND_DIMSIZE temp1242_150)))
(assert (= temp1242_152 #x0000000000000005))
(assert (= temp1242_153 temp1242_152))
(assert (= temp1242_154 (select ARGNAME_weight_NAMEEND_DIMSIZE temp1242_153)))
(assert (= temp1242_156 var1310898))
(assert (= temp1242_157 (select ARGNAME_weight_NAMEEND_DIMSIZE temp1242_156)))
(assert (= temp1242_155 temp1242_157))
(assert (= var1322852
   (ite (bvslt temp1242_155 ARGNAME_groups_NAMEEND)
        #x0000000000000001
        #x0000000000000000)))
(assert (= temp1242_158 #x0000000000000000))
(assert (= var1322852 temp1242_158))
(assert (= temp1242_159 #x0000000000000000))
(assert (= var1310898 temp1242_159))
(assert (= temp1242_161 var1310898))
(assert (= temp1242_162 (select ARGNAME_weight_NAMEEND_DIMSIZE temp1242_161)))
(assert (= temp1242_160 temp1242_162))
(assert (= var1322874 (bvsmod temp1242_160 ARGNAME_groups_NAMEEND)))
(assert (= temp1242_163 #x0000000000000000))
(assert (= var1322875
   (ite (= var1322874 temp1242_163) #x0000000000000001 #x0000000000000000)))
(assert (= temp1242_164 #x0000000000000001))
(assert (= var1322875 temp1242_164))
(assert (= temp1242_165 #x0000000000000000))
(assert (= var1322895
   (ite (= ARGNAME_transposed_NAMEEND temp1242_165)
        #x0000000000000001
        #x0000000000000000)))
(assert (= temp1242_166 #x0000000000000001))
(assert (= var1322895 temp1242_166))
(assert (= temp1242_167 #x0000000000000001))
(assert (= var1311786 temp1242_167))
(assert (= temp1242_168 #x0000000000000000))
(assert (= temp1242_169 temp1242_168))
(assert (= temp1242_170 (select ARGNAME_input_NAMEEND_DIMSIZE temp1242_169)))
(assert (= temp1242_171 #x0000000000000001))
(assert (= temp1242_172 temp1242_171))
(assert (= temp1242_173 (select ARGNAME_input_NAMEEND_DIMSIZE temp1242_172)))
(assert (= temp1242_174 #x0000000000000002))
(assert (= temp1242_175 temp1242_174))
(assert (= temp1242_176 (select ARGNAME_input_NAMEEND_DIMSIZE temp1242_175)))
(assert (= temp1242_177 #x0000000000000003))
(assert (= temp1242_178 temp1242_177))
(assert (= temp1242_179 (select ARGNAME_input_NAMEEND_DIMSIZE temp1242_178)))
(assert (= temp1242_180 #x0000000000000004))
(assert (= temp1242_181 temp1242_180))
(assert (= temp1242_182 (select ARGNAME_input_NAMEEND_DIMSIZE temp1242_181)))
(assert (= temp1242_183 #x0000000000000005))
(assert (= temp1242_184 temp1242_183))
(assert (= temp1242_185 (select ARGNAME_input_NAMEEND_DIMSIZE temp1242_184)))
(assert (= temp1242_186 #x0000000000000000))
(assert (= temp1242_187
   (ite (bvslt var1311786 temp1242_186)
        (bvadd ARGNAME_input_NAMEEND_DIM var1311786)
        var1311786)))
(assert (= temp1242_188 (select ARGNAME_input_NAMEEND_DIMSIZE temp1242_187)))
(assert (= var1322903 temp1242_188))
(assert (bvslt (ite (bvslt var1311786 temp1242_186)
            (bvadd ARGNAME_input_NAMEEND_DIM var1311786)
            var1311786)
       ARGNAME_input_NAMEEND_DIM))
(assert (= temp1242_189 #x0000000000000001))
(assert (= var1311786 temp1242_189))
(assert (= temp1242_191 var1311786))
(assert (= temp1242_192 (select ARGNAME_weight_NAMEEND_DIMSIZE temp1242_191)))
(assert (= temp1242_190 temp1242_192))
(assert (= var1322907 (bvmul ARGNAME_groups_NAMEEND temp1242_190)))
(assert (= var1322908
   (ite (= var1322903 var1322907) #x0000000000000001 #x0000000000000000)))
(assert (= temp1242_193 #x0000000000000001))
(assert (= var1322908 temp1242_193))
(assert (= temp1242_194 #x0000000000000001))
(assert (= var1322975
   (ite (= ARGNAME_bias_NAMEEND_DIM temp1242_194)
        #x0000000000000001
        #x0000000000000000)))
(assert (= temp1242_195 #x0000000000000001))
(assert (= var1322975 temp1242_195))
(assert (= temp1242_196 #x0000000000000000))
(assert (= var1310898 temp1242_196))
(assert (= temp1242_197 #x0000000000000000))
(assert (= temp1242_198 temp1242_197))
(assert (= temp1242_199 (select ARGNAME_bias_NAMEEND_DIMSIZE temp1242_198)))
(assert (= temp1242_200 #x0000000000000001))
(assert (= temp1242_201 temp1242_200))
(assert (= temp1242_202 (select ARGNAME_bias_NAMEEND_DIMSIZE temp1242_201)))
(assert (= temp1242_203 #x0000000000000002))
(assert (= temp1242_204 temp1242_203))
(assert (= temp1242_205 (select ARGNAME_bias_NAMEEND_DIMSIZE temp1242_204)))
(assert (= temp1242_206 #x0000000000000003))
(assert (= temp1242_207 temp1242_206))
(assert (= temp1242_208 (select ARGNAME_bias_NAMEEND_DIMSIZE temp1242_207)))
(assert (= temp1242_209 #x0000000000000004))
(assert (= temp1242_210 temp1242_209))
(assert (= temp1242_211 (select ARGNAME_bias_NAMEEND_DIMSIZE temp1242_210)))
(assert (= temp1242_212 #x0000000000000005))
(assert (= temp1242_213 temp1242_212))
(assert (= temp1242_214 (select ARGNAME_bias_NAMEEND_DIMSIZE temp1242_213)))
(assert (= temp1242_215 #x0000000000000000))
(assert (= temp1242_216
   (ite (bvslt var1310898 temp1242_215)
        (bvadd ARGNAME_bias_NAMEEND_DIM var1310898)
        var1310898)))
(assert (= temp1242_217 (select ARGNAME_bias_NAMEEND_DIMSIZE temp1242_216)))
(assert (= var1322977 temp1242_217))
(assert (bvslt (ite (bvslt var1310898 temp1242_215)
            (bvadd ARGNAME_bias_NAMEEND_DIM var1310898)
            var1310898)
       ARGNAME_bias_NAMEEND_DIM))
(assert (= temp1242_218 #x0000000000000000))
(assert (= var1310898 temp1242_218))
(assert (= temp1242_220 var1310898))
(assert (= temp1242_221 (select ARGNAME_weight_NAMEEND_DIMSIZE temp1242_220)))
(assert (= temp1242_219 temp1242_221))
(assert (= var1322980
   (ite (= var1322977 temp1242_219) #x0000000000000001 #x0000000000000000)))
(assert (= temp1242_222 #x0000000000000001))
(assert (= var1322980 temp1242_222))
(assert (= temp1242_223 #x0000000000000002))
(assert (= var1848169 temp1242_223))
(assert (= var1848178 var1848169))
(assert (= var1913913 var1848178))
(assert (= var1913915
   (ite (bvslt var1913913 ARGNAME_input_NAMEEND_DIM)
        #x0000000000000001
        #x0000000000000000)))
(assert (= temp1242_224
   (ite (= var1913915 #x0000000000000001) ARGNAME_input_NAMEEND_DIM var1848178)))
(assert (= var1979456 var1848178))
(assert (= var2045003 var1979456))
(assert (= temp1242_225 #x0000000000000001))
(assert (= var1323065 temp1242_225))
(assert (= temp1242_226 #x0000000000000001))
(assert (= var3486735 temp1242_226))
(assert (= temp1242_227 #x0000000000000001))
(assert (= var3814415 temp1242_227))
(assert (= temp1242_228 #x0000000000000003))
(assert (= var79986
   (ite (= ARGNAME_weight_NAMEEND_DIM temp1242_228)
        #x0000000000000001
        #x0000000000000000)))
(assert (= temp1242_229 #x0000000000000001))
(assert (= var79986 temp1242_229))
(assert (= temp1242_230 #x0000000000000001))
(assert (= var80116 temp1242_230))
(assert (= var4796905 var80116))
(assert (= temp1242_231 #x0000000000000000))
(assert (= var4784306 temp1242_231))
(assert (= temp1242_232 #x0000000000000000))
(assert (= temp1242_233
   (ite (bvslt var4784306 temp1242_232)
        (bvadd ARGNAME_input_NAMEEND_DIM var4784306)
        var4784306)))
(assert (= temp1242_234 (select ARGNAME_input_NAMEEND_DIMSIZE temp1242_233)))
(assert (= var4796924 temp1242_234))
(assert (bvslt (ite (bvslt var4784306 temp1242_232)
            (bvadd ARGNAME_input_NAMEEND_DIM var4784306)
            var4784306)
       ARGNAME_input_NAMEEND_DIM))
(assert (= temp1242_235 #x0000000000000000))
(assert (= var4796925
   (ite (= var4796924 temp1242_235) #x0000000000000001 #x0000000000000000)))
(assert (= temp1242_236 #x0000000000000001))
(assert (= var4796925 temp1242_236))
(assert (= temp1242_237 #x0000000000000000))
(assert (= var5050621 temp1242_237))
(assert (= var5050566 var5050621))
(assert (= var4996900 var5050566))
(assert (= var4996927 var4996900))
(assert (= var4996929 var4996927))
(assert (= var4996886 var4996929))
(assert (= var80129 var4996886))
(assert (= temp1242_238 #x0000000000000002))
(assert (= var5256835 temp1242_238))
(assert (= var5256837 (bvsub ARGNAME_weight_NAMEEND_DIM var5256835)))
(assert (= var5322380 var5256835))
(assert (= var5322381 var5256837))
(assert (= var5322394 (bvadd var5322381 var5322380)))
(assert (= var5322396
   (ite (bvsgt var5322394 ARGNAME_weight_NAMEEND_DIM)
        #x0000000000000001
        #x0000000000000000)))
(assert (= temp1242_239 #x0000000000000000))
(assert (= var5322396 temp1242_239))
(assert (= var5322421 var5322380))
(assert (= var5322423 var5322381))
(assert (= var5443411 var5322423))
(assert (= var6042000 var80129))
(assert (= temp1242_240 #x0000000000000000))
(assert (= var80421
   (ite (distinct ARGNAME_benchmark_NAMEEND temp1242_240)
        #x0000000000000001
        #x0000000000000000)))
(assert (= temp1242_241 #x0000000000000000))
(assert (= var80423
   (ite (distinct ARGNAME_deterministic_NAMEEND temp1242_241)
        #x0000000000000001
        #x0000000000000000)))
(assert (= temp1242_242 #x0000000000000000))
(assert (= var80425
   (ite (distinct ARGNAME_allow_tf32_NAMEEND temp1242_242)
        #x0000000000000001
        #x0000000000000000)))
(assert (= temp1242_244 #x0000000000000001))
(assert (= temp1242_243 temp1242_244))
(model-add temp1242_1 () (_ BitVec 64) #xfffffffffffffffe)
(model-add var79868
           ()
           (_ BitVec 64)
           (bvadd #xfffffffffffffffe ARGNAME_weight_NAMEEND_DIM))
(model-add temp1242_2 () (_ BitVec 64) #x0000000000000003)
(model-add temp1242_3 () (_ BitVec 64) #x0000000000000000)
(model-add var79869 () (_ BitVec 64) #x0000000000000000)
(model-del k!0)
(model-add ARGNAME_weight_NAMEEND_DIM
           ()
           (_ BitVec 64)
           (ite (or k!0 (= #x0000000000000003 #x8000000000000000))
                #x0000000000000003
                (bvsub #x0000000000000003 #x0000000000000001)))






